Version identifier: 22.1.1.0 | 2022-11-28 | 9160aff4d
CPXPARAM_TimeLimit                               3600
Tried aggregator 1 time.
MIP Presolve eliminated 74 rows and 25 columns.
Reduced MIP has 8626 rows, 2648 columns, and 25778 nonzeros.
Reduced MIP has 2648 binaries, 0 generals, 0 SOSs, and 0 indicators.
Presolve time = 0.02 sec. (16.60 ticks)
Found incumbent of value 6547233.000000 after 0.02 sec. (20.52 ticks)
Probing time = 0.00 sec. (3.97 ticks)
Tried aggregator 1 time.
Detecting symmetries...
Reduced MIP has 8626 rows, 2648 columns, and 25778 nonzeros.
Reduced MIP has 2648 binaries, 0 generals, 0 SOSs, and 0 indicators.
Presolve time = 0.02 sec. (19.35 ticks)
Probing time = 0.01 sec. (3.97 ticks)
Clique table members: 2476.
MIP emphasis: balance optimality and feasibility.
MIP search method: dynamic search.
Parallel mode: deterministic, using up to 8 threads.
Root relaxation solution time = 0.02 sec. (13.70 ticks)

        Nodes                                         Cuts/
   Node  Left     Objective  IInf  Best Integer    Best Bound    ItCnt     Gap

*     0+    0                      6547233.0000        0.0000           100.00%
*     0+    0                      4062370.0000        0.0000           100.00%
*     0+    0                       952970.0000        0.0000           100.00%
*     0+    0                       369145.0000        0.0000           100.00%
      0     0    93774.0000   100   369145.0000    93774.0000      157   74.60%
*     0+    0                       175957.0000    93774.0000            46.71%
      0     0   106217.5000   100   175957.0000     Cuts: 293      264   39.63%
      0     0   118540.5000    96   175957.0000     Cuts: 294      381   32.63%
Detecting symmetries...

Repeating presolve.
Tried aggregator 2 times.
MIP Presolve eliminated 3964 rows and 776 columns.
MIP Presolve modified 660 coefficients.
Aggregator did 2 substitutions.
Reduced MIP has 4660 rows, 1870 columns, and 14750 nonzeros.
Reduced MIP has 1870 binaries, 0 generals, 0 SOSs, and 0 indicators.
Presolve time = 0.01 sec. (13.78 ticks)
Probing time = 0.00 sec. (2.34 ticks)
Tried aggregator 1 time.
Detecting symmetries...
Reduced MIP has 4660 rows, 1870 columns, and 14750 nonzeros.
Reduced MIP has 1870 binaries, 0 generals, 0 SOSs, and 0 indicators.
Presolve time = 0.01 sec. (10.77 ticks)
Represolve time = 0.03 sec. (31.55 ticks)
Probing time = 0.00 sec. (2.34 ticks)
Clique table members: 1515.
MIP emphasis: balance optimality and feasibility.
MIP search method: dynamic search.
Parallel mode: deterministic, using up to 8 threads.
Root relaxation solution time = 0.02 sec. (15.40 ticks)

        Nodes                                         Cuts/
   Node  Left     Objective  IInf  Best Integer    Best Bound    ItCnt     Gap

*     0+    0                       175957.0000   118540.5000            32.63%
      0     0   118540.5000    96   175957.0000   118540.5000      592   32.63%
      0     0   128838.2500   138   175957.0000      Cuts: 84      887   26.78%
      0     0   132087.4583   163   175957.0000      Cuts: 86     1032   24.93%
      0     0   138479.2857   162   175957.0000      Cuts: 84     1248   21.30%
*     0+    0                       146344.0000   138479.2857             5.37%
      0     0   139887.6929   171   146344.0000      Cuts: 71     1411    4.41%
      0     0   140932.5771   178   146344.0000      Cuts: 87     1509    3.70%
      0     0   141725.0800   151   146344.0000      Cuts: 70     1579    3.16%
      0     0   142289.5147   144   146344.0000     Cuts: 113     1672    2.77%
      0     0   142894.6429   144   146344.0000      Cuts: 86     1768    2.36%
      0     0   143472.5264   149   146344.0000     Cuts: 113     1823    1.96%
      0     0   143602.4687   148   146344.0000      Cuts: 30     1865    1.87%
      0     0   143915.2368   150   146344.0000      Cuts: 65     1920    1.66%
      0     0   144117.6744   133   146344.0000      Cuts: 81     1981    1.52%
      0     0   144169.6000   145   146344.0000      Cuts: 42     2002    1.49%
      0     0   144203.5385   147   146344.0000  ZeroHalf: 29     2032    1.46%
      0     0        cutoff         146344.0000   146344.0000     2060    0.00%
Elapsed time = 0.78 sec. (602.20 ticks, tree = 0.01 MB, solutions = 6)

Implied bound cuts applied:  61
Zero-half cuts applied:  157

Root node processing (before b&c):
  Real time             =    0.79 sec. (602.44 ticks)
Parallel b&c, 8 threads:
  Real time             =    0.00 sec. (0.00 ticks)
  Sync time (average)   =    0.00 sec.
  Wait time (average)   =    0.00 sec.
                          ------------
Total (root+branch&cut) =    0.79 sec. (602.44 ticks)
Status: Optimal
Obj: 146344

Instalacoes abertas:
Instalação 4 aberta
Instalação 9 aberta
Instalação 20 aberta
Instalação 22 aberta

Atribuições (cliente -> instalação):
Cliente 0 -> Instalação 9
Cliente 1 -> Instalação 9
Cliente 2 -> Instalação 4
Cliente 3 -> Instalação 9
Cliente 4 -> Instalação 4
Cliente 5 -> Instalação 4
Cliente 6 -> Instalação 4
Cliente 7 -> Instalação 9
Cliente 8 -> Instalação 4
Cliente 9 -> Instalação 4
Cliente 10 -> Instalação 4
Cliente 11 -> Instalação 22
Cliente 12 -> Instalação 9
Cliente 13 -> Instalação 9
Cliente 14 -> Instalação 4
Cliente 15 -> Instalação 9
Cliente 16 -> Instalação 4
Cliente 17 -> Instalação 9
Cliente 18 -> Instalação 9
Cliente 19 -> Instalação 9
Cliente 20 -> Instalação 4
Cliente 21 -> Instalação 4
Cliente 22 -> Instalação 22
Cliente 23 -> Instalação 9
Cliente 24 -> Instalação 20
Cliente 25 -> Instalação 20
Cliente 26 -> Instalação 4
Cliente 27 -> Instalação 22
Cliente 28 -> Instalação 20
Cliente 29 -> Instalação 9
Cliente 30 -> Instalação 20
Cliente 31 -> Instalação 20
Cliente 32 -> Instalação 4
Cliente 33 -> Instalação 20
Cliente 34 -> Instalação 20
Cliente 35 -> Instalação 20
Cliente 36 -> Instalação 9
Cliente 37 -> Instalação 9
Cliente 38 -> Instalação 4
Cliente 39 -> Instalação 20
Cliente 40 -> Instalação 4
Cliente 41 -> Instalação 4
Cliente 42 -> Instalação 9
Cliente 43 -> Instalação 4
Cliente 44 -> Instalação 4
Cliente 45 -> Instalação 9
Cliente 46 -> Instalação 4
Cliente 47 -> Instalação 20
Cliente 48 -> Instalação 20
Cliente 49 -> Instalação 20
